* Generated by MPModelProtoExporter
*   Name             : 
*   Format           : Free
*   Constraints      : 5
*   Variables        : 10
*     Binary         : 0
*     Integer        : 0
*     Continuous     : 10
NAME          
ROWS
 N  COST
 E  N_balance_t0_s0
 E  N_balance_t1_s0
 E  N_balance_t2_s0
 E  N_balance_t3_s0
 E  N_balance_t4_s0
COLUMNS
    G1_generation_t0  COST                  30  N_balance_t0_s0        1
    G1_generation_t1  COST                  30  N_balance_t1_s0        1
    G1_generation_t2  COST                  30  N_balance_t2_s0        1
    G1_generation_t3  COST                  30  N_balance_t3_s0        1
    G1_generation_t4  COST                  30  N_balance_t4_s0        1
    G2_generation_t0  COST                   1  N_balance_t0_s0        1
    G2_generation_t1  COST                   1  N_balance_t1_s0        1
    G2_generation_t2  COST                   1  N_balance_t2_s0        1
    G2_generation_t3  COST                   1  N_balance_t3_s0        1
    G2_generation_t4  COST                   1  N_balance_t4_s0        1
RHS
    RHS               N_balance_t0_s0      100  N_balance_t1_s0      100
    RHS               N_balance_t2_s0      100  N_balance_t3_s0      100
    RHS               N_balance_t4_s0      100
BOUNDS
 UP BOUND             G1_generation_t0     100
 UP BOUND             G1_generation_t1     100
 UP BOUND             G1_generation_t2     100
 UP BOUND             G1_generation_t3     100
 UP BOUND             G1_generation_t4     100
 UP BOUND             G2_generation_t0     100
 UP BOUND             G2_generation_t1     100
 UP BOUND             G2_generation_t2     100
 UP BOUND             G2_generation_t3     100
 UP BOUND             G2_generation_t4     100
ENDATA
